p cnf 66 642
-1 -3 0
-1 -8 0
-2 -7 0
-2 -9 0
-7 -9 0
-9 -11 0
-11 -12 0
-11 -24 0
-4 -14 0
-4 -6 0
-4 -16 0
-4 -19 0
-14 -6 0
-14 -16 0
-14 -19 0
-5 -18 0
-3 -8 0
-3 -21 0
-3 -2 0
-3 -7 0
-8 -21 0
-8 -2 0
-8 -7 0
-12 -24 0
-12 -15 0
-12 -26 0
-24 -15 0
-24 -26 0
-15 -26 0
-15 -17 0
-15 -4 0
-15 -14 0
-6 -16 0
-6 -19 0
-6 -20 0
-6 -5 0
-6 -18 0
-16 -19 0
-16 -20 0
-16 -5 0
-16 -18 0
-19 -20 0
-19 -5 0
-19 -18 0
-28 -21 0
-28 -29 0
-28 -3 0
-28 -8 0
-21 -29 0
-21 -23 0
-21 -31 0
-10 -22 0
-10 -13 0
-10 -25 0
-22 -13 0
-22 -25 0
-13 -25 0
-13 -27 0
-13 -12 0
-13 -24 0
-25 -27 0
-25 -12 0
-25 -24 0
-26 -17 0
-26 -35 0
-17 -35 0
-17 -6 0
-17 -16 0
-17 -19 0
-29 -32 0
-29 -38 0
-29 -23 0
-29 -31 0
-23 -31 0
-23 -33 0
-23 -10 0
-23 -22 0
-31 -33 0
-31 -10 0
-31 -22 0
-27 -36 0
-27 -26 0
-35 -37 0
-30 -39 0
-30 -32 0
-30 -38 0
-30 -29 0
-32 -38 0
-32 -34 0
-32 -40 0
-32 -23 0
-32 -31 0
-38 -34 0
-38 -40 0
-38 -23 0
-38 -31 0
-33 -48 0
-36 -42 0
-36 -52 0
-36 -35 0
-37 -43 0
-37 -46 0
-37 -45 0
-39 -41 0
-39 -32 0
-39 -38 0
-34 -40 0
-34 -49 0
-34 -48 0
-34 -33 0
-40 -49 0
-40 -48 0
-40 -33 0
-48 -50 0
-42 -52 0
-42 -44 0
-42 -54 0
-52 -44 0
-52 -54 0
-43 -46 0
-43 -56 0
-43 -47 0
-43 -45 0
-46 -56 0
-46 -47 0
-46 -45 0
-41 -49 0
-41 -34 0
-41 -40 0
-49 -51 0
-49 -48 0
-50 -60 0
-50 -53 0
-53 -55 0
-53 -42 0
-53 -52 0
-44 -54 0
-44 -57 0
-44 -56 0
-44 -43 0
-44 -46 0
-54 -57 0
-54 -56 0
-54 -43 0
-54 -46 0
-56 -47 0
-56 -58 0
-47 -58 0
-51 -61 0
-51 -60 0
-51 -50 0
-60 -62 0
-60 -53 0
-55 -57 0
-55 -44 0
-55 -54 0
-57 -59 0
-57 -56 0
-64 -66 0
-61 -63 0
-61 -60 0
-62 -55 0
-59 -58 0
-65 -64 0
-66 -61 0
-63 -62 0
-1 -2 0
-1 -3 0
-2 -3 0
1 2 3 0
-4 -5 0
-4 -6 0
-5 -6 0
4 5 6 0
-7 -8 0
7 8 0
-9 -10 0
9 10 0
-11 -12 0
-11 -13 0
-12 -13 0
11 12 13 0
-14 -15 0
-14 -16 0
-14 -17 0
-15 -16 0
-15 -17 0
-16 -17 0
14 15 16 17 0
-18 -19 0
-18 -20 0
-19 -20 0
18 19 20 0
-21 -22 0
-21 -23 0
-22 -23 0
21 22 23 0
-24 -25 0
-24 -26 0
-24 -27 0
-25 -26 0
-25 -27 0
-26 -27 0
24 25 26 27 0
-28 -29 0
-28 -30 0
-29 -30 0
28 29 30 0
-31 -32 0
-31 -33 0
-31 -34 0
-32 -33 0
-32 -34 0
-33 -34 0
31 32 33 34 0
-35 -36 0
-35 -37 0
-36 -37 0
35 36 37 0
-38 -39 0
-38 -40 0
-38 -41 0
-39 -40 0
-39 -41 0
-40 -41 0
38 39 40 41 0
-42 -43 0
-42 -44 0
-43 -44 0
42 43 44 0
-45 -46 0
-45 -47 0
-46 -47 0
45 46 47 0
-48 -49 0
-48 -50 0
-48 -51 0
-49 -50 0
-49 -51 0
-50 -51 0
48 49 50 51 0
-52 -53 0
-52 -54 0
-52 -55 0
-53 -54 0
-53 -55 0
-54 -55 0
52 53 54 55 0
-56 -57 0
-56 -58 0
-56 -59 0
-57 -58 0
-57 -59 0
-58 -59 0
56 57 58 59 0
-60 -61 0
-60 -62 0
-60 -63 0
-61 -62 0
-61 -63 0
-62 -63 0
60 61 62 63 0
-64 -65 0
-64 -66 0
-65 -66 0
64 65 66 0
-1 -2 -7 -9 -11 -4 -14 0
-1 -2 -7 -9 -11 -5 -18 0
-1 -2 -7 -9 -4 -14 -5 -18 0
-1 -2 -7 -11 -4 -14 -5 -18 0
-1 -9 -11 -4 -14 -5 -18 0
-2 -7 -9 -11 -4 -14 -5 -18 0
1 2 7 9 0
1 2 7 11 0
1 2 7 4 14 0
1 2 7 5 18 0
1 9 11 0
1 9 4 14 0
1 9 5 18 0
1 11 4 14 0
1 11 5 18 0
1 4 14 5 18 0
2 7 9 11 0
2 7 9 4 14 0
2 7 9 5 18 0
2 7 11 4 14 0
2 7 11 5 18 0
2 7 4 14 5 18 0
9 11 4 14 0
9 11 5 18 0
9 4 14 5 18 0
11 4 14 5 18 0
-3 -8 -12 -24 0
-3 -8 -15 0
-3 -8 -6 -16 -19 0
-12 -24 -15 0
-12 -24 -6 -16 -19 0
-15 -6 -16 -19 0
3 8 12 24 15 6 16 19 0
-28 -21 -10 -22 -13 -25 0
-28 -21 -10 -22 -26 0
-28 -21 -10 -22 -17 0
-28 -21 -10 -22 -20 0
-28 -21 -13 -25 -26 0
-28 -21 -13 -25 -17 0
-28 -21 -13 -25 -20 0
-28 -21 -26 -17 0
-28 -21 -26 -20 0
-28 -21 -17 -20 0
-28 -10 -22 -13 -25 -26 0
-28 -10 -22 -13 -25 -17 0
-28 -10 -22 -13 -25 -20 0
-28 -10 -22 -26 -17 0
-28 -10 -22 -26 -20 0
-28 -10 -22 -17 -20 0
-28 -13 -25 -26 -17 0
-28 -13 -25 -26 -20 0
-28 -13 -25 -17 -20 0
-28 -26 -17 -20 0
-21 -10 -22 -13 -25 -26 0
-21 -10 -22 -13 -25 -17 0
-21 -10 -22 -13 -25 -20 0
-21 -10 -22 -26 -17 0
-21 -10 -22 -26 -20 0
-21 -10 -22 -17 -20 0
-21 -13 -25 -26 -17 0
-21 -13 -25 -26 -20 0
-21 -13 -25 -17 -20 0
-21 -26 -17 -20 0
-10 -22 -13 -25 -26 -17 0
-10 -22 -13 -25 -26 -20 0
-10 -22 -13 -25 -17 -20 0
-10 -22 -26 -17 -20 0
-13 -25 -26 -17 -20 0
28 21 10 22 13 25 26 0
28 21 10 22 13 25 17 0
28 21 10 22 13 25 20 0
28 21 10 22 26 17 0
28 21 10 22 26 20 0
28 21 10 22 17 20 0
28 21 13 25 26 17 0
28 21 13 25 26 20 0
28 21 13 25 17 20 0
28 21 26 17 20 0
28 10 22 13 25 26 17 0
28 10 22 13 25 26 20 0
28 10 22 13 25 17 20 0
28 10 22 26 17 20 0
28 13 25 26 17 20 0
21 10 22 13 25 26 17 0
21 10 22 13 25 26 20 0
21 10 22 13 25 17 20 0
21 10 22 26 17 20 0
21 13 25 26 17 20 0
10 22 13 25 26 17 20 0
-29 -23 -31 -27 0
-29 -23 -31 -35 0
-29 -27 -35 0
-23 -31 -27 -35 0
29 23 31 27 0
29 23 31 35 0
29 27 35 0
23 31 27 35 0
-30 -32 -38 -33 -36 0
-30 -32 -38 -33 -37 0
-30 -32 -38 -33 -45 0
-30 -32 -38 -36 -37 0
-30 -32 -38 -36 -45 0
-30 -32 -38 -37 -45 0
-30 -33 -36 -37 0
-30 -33 -36 -45 0
-30 -33 -37 -45 0
-30 -36 -37 -45 0
-32 -38 -33 -36 -37 0
-32 -38 -33 -36 -45 0
-32 -38 -33 -37 -45 0
-32 -38 -36 -37 -45 0
-33 -36 -37 -45 0
30 32 38 33 36 0
30 32 38 33 37 0
30 32 38 33 45 0
30 32 38 36 37 0
30 32 38 36 45 0
30 32 38 37 45 0
30 33 36 37 0
30 33 36 45 0
30 33 37 45 0
30 36 37 45 0
32 38 33 36 37 0
32 38 33 36 45 0
32 38 33 37 45 0
32 38 36 37 45 0
33 36 37 45 0
-39 -34 -40 0
-39 -48 0
-39 -42 -52 0
-39 -43 -46 0
-34 -40 -48 0
-34 -40 -42 -52 0
-34 -40 -43 -46 0
-48 -42 -52 0
-48 -43 -46 0
-42 -52 -43 -46 0
39 34 40 48 42 52 43 46 0
-41 -49 -50 -53 0
-41 -49 -50 -44 -54 0
-41 -49 -50 -56 0
-41 -49 -50 -47 0
-41 -49 -53 -44 -54 0
-41 -49 -53 -56 0
-41 -49 -53 -47 0
-41 -49 -44 -54 -56 0
-41 -49 -44 -54 -47 0
-41 -49 -56 -47 0
-41 -50 -53 -44 -54 0
-41 -50 -53 -56 0
-41 -50 -53 -47 0
-41 -50 -44 -54 -56 0
-41 -50 -44 -54 -47 0
-41 -50 -56 -47 0
-41 -53 -44 -54 -56 0
-41 -53 -44 -54 -47 0
-41 -53 -56 -47 0
-41 -44 -54 -56 -47 0
-49 -50 -53 -44 -54 0
-49 -50 -53 -56 0
-49 -50 -53 -47 0
-49 -50 -44 -54 -56 0
-49 -50 -44 -54 -47 0
-49 -50 -56 -47 0
-49 -53 -44 -54 -56 0
-49 -53 -44 -54 -47 0
-49 -53 -56 -47 0
-49 -44 -54 -56 -47 0
-50 -53 -44 -54 -56 0
-50 -53 -44 -54 -47 0
-50 -53 -56 -47 0
-50 -44 -54 -56 -47 0
-53 -44 -54 -56 -47 0
41 49 50 53 44 54 0
41 49 50 53 56 0
41 49 50 53 47 0
41 49 50 44 54 56 0
41 49 50 44 54 47 0
41 49 50 56 47 0
41 49 53 44 54 56 0
41 49 53 44 54 47 0
41 49 53 56 47 0
41 49 44 54 56 47 0
41 50 53 44 54 56 0
41 50 53 44 54 47 0
41 50 53 56 47 0
41 50 44 54 56 47 0
41 53 44 54 56 47 0
49 50 53 44 54 56 0
49 50 53 44 54 47 0
49 50 53 56 47 0
49 50 44 54 56 47 0
49 53 44 54 56 47 0
50 53 44 54 56 47 0
-51 -60 0
-51 -55 0
-51 -57 0
-51 -58 0
-60 -55 0
-60 -57 0
-60 -58 0
-55 -57 0
-55 -58 0
-57 -58 0
51 60 55 57 58 0
-64 -61 -62 0
-64 -61 -59 0
-64 -62 -59 0
-61 -62 -59 0
64 61 62 0
64 61 59 0
64 62 59 0
61 62 59 0
-65 0
-66 0
-63 0
-1 -28 -30 0
-1 -28 -39 0
-1 -28 -65 0
-1 -30 -39 0
-1 -30 -65 0
-1 -39 -65 0
-28 -30 -39 0
-28 -30 -65 0
-28 -39 -65 0
-30 -39 -65 0
1 28 30 39 0
1 28 30 65 0
1 28 39 65 0
1 30 39 65 0
28 30 39 65 0
-3 -8 -21 -29 -32 -38 0
-3 -8 -21 -29 -41 0
-3 -8 -21 -29 -64 0
-3 -8 -21 -32 -38 -41 0
-3 -8 -21 -32 -38 -64 0
-3 -8 -21 -41 -64 0
-3 -8 -29 -32 -38 -41 0
-3 -8 -29 -32 -38 -64 0
-3 -8 -29 -41 -64 0
-3 -8 -32 -38 -41 -64 0
-21 -29 -32 -38 -41 0
-21 -29 -32 -38 -64 0
-21 -29 -41 -64 0
-21 -32 -38 -41 -64 0
-29 -32 -38 -41 -64 0
3 8 21 29 32 38 0
3 8 21 29 41 0
3 8 21 29 64 0
3 8 21 32 38 41 0
3 8 21 32 38 64 0
3 8 21 41 64 0
3 8 29 32 38 41 0
3 8 29 32 38 64 0
3 8 29 41 64 0
3 8 32 38 41 64 0
21 29 32 38 41 0
21 29 32 38 64 0
21 29 41 64 0
21 32 38 41 64 0
29 32 38 41 64 0
-2 -7 -23 -31 0
-2 -7 -34 -40 0
-2 -7 -49 0
-2 -7 -66 0
-23 -31 -34 -40 0
-23 -31 -49 0
-23 -31 -66 0
-34 -40 -49 0
-34 -40 -66 0
-49 -66 0
2 7 23 31 34 40 49 66 0
-9 -10 -22 -33 -48 0
-9 -10 -22 -33 -51 0
-9 -10 -22 -33 -61 0
-9 -10 -22 -48 -51 0
-9 -10 -22 -48 -61 0
-9 -10 -22 -51 -61 0
-9 -33 -48 -51 0
-9 -33 -48 -61 0
-9 -33 -51 -61 0
-9 -48 -51 -61 0
-10 -22 -33 -48 -51 0
-10 -22 -33 -48 -61 0
-10 -22 -33 -51 -61 0
-10 -22 -48 -51 -61 0
-33 -48 -51 -61 0
9 10 22 33 48 0
9 10 22 33 51 0
9 10 22 33 61 0
9 10 22 48 51 0
9 10 22 48 61 0
9 10 22 51 61 0
9 33 48 51 0
9 33 48 61 0
9 33 51 61 0
9 48 51 61 0
10 22 33 48 51 0
10 22 33 48 61 0
10 22 33 51 61 0
10 22 48 51 61 0
33 48 51 61 0
-11 -13 -25 -50 0
-11 -13 -25 -60 0
-11 -13 -25 -63 0
-11 -50 -60 0
-11 -50 -63 0
-11 -60 -63 0
-13 -25 -50 -60 0
-13 -25 -50 -63 0
-13 -25 -60 -63 0
-50 -60 -63 0
11 13 25 50 60 0
11 13 25 50 63 0
11 13 25 60 63 0
11 50 60 63 0
13 25 50 60 63 0
-12 -24 -27 0
-12 -24 -53 0
-12 -24 -62 0
-27 -53 0
-27 -62 0
-53 -62 0
12 24 27 53 62 0
-15 -26 -36 -42 -52 0
-15 -26 -36 -55 0
-15 -26 -42 -52 -55 0
-15 -36 -42 -52 -55 0
-26 -36 -42 -52 -55 0
15 26 36 0
15 26 42 52 0
15 26 55 0
15 36 42 52 0
15 36 55 0
15 42 52 55 0
26 36 42 52 0
26 36 55 0
26 42 52 55 0
36 42 52 55 0
-4 -14 -17 0
-4 -14 -35 0
-4 -14 -44 -54 0
-4 -14 -57 0
-17 -35 0
-17 -44 -54 0
-17 -57 0
-35 -44 -54 0
-35 -57 0
-44 -54 -57 0
4 14 17 35 44 54 57 0
-6 -16 -19 -37 0
-6 -16 -19 -43 -46 0
-6 -16 -19 -56 0
-6 -16 -19 -59 0
-37 -43 -46 0
-37 -56 0
-37 -59 0
-43 -46 -56 0
-43 -46 -59 0
-56 -59 0
6 16 19 37 43 46 56 59 0
-5 -18 -20 -45 -47 0
-5 -18 -20 -45 -58 0
-5 -18 -20 -47 -58 0
-5 -18 -45 -47 -58 0
-20 -45 -47 -58 0
5 18 20 45 0
5 18 20 47 0
5 18 20 58 0
5 18 45 47 0
5 18 45 58 0
5 18 47 58 0
20 45 47 0
20 45 58 0
20 47 58 0
45 47 58 0
